data/CVRPLIB/Vrp-Set-XML100/instances/XML100_2111_13.vrp
NAME : XML100_2111_13
COMMENT : Generated by Queiroga, Sadykov, Uchoa, and Vidal (2021)
TYPE : CVRP
DIMENSION : 101
EDGE_WEIGHT_TYPE : EUC_2D
CAPACITY : 3
NODE_COORD_SECTION
1    500  500 
2    720  490 
3    297  725 
4    746  173 
5    35   980 
6    849  866 
7    118  292 
8    260  501 
9    753  123 
10   406  31  
11   27   99  
12   809  416 
13   691  388 
14   346  489 
15   588  772 
16   492  497 
17   255  200 
18   760  603 
19   532  584 
20   170  265 
21   156  556 
22   200  805 
23   324  189 
24   764  306 
25   771  128 
26   415  123 
27   336  768 
28   488  314 
29   892  734 
30   766  178 
31   466  303 
32   636  757 
33   351  86  
34   624  768 
35   706  271 
36   680  943 
37   593  303 
38   553  634 
39   680  654 
40   769  465 
41   782  891 
42   374  38  
43   38   741 
44   784  934 
45   199  245 
46   585  271 
47   887  892 
48   479  640 
49   79   692 
50   985  225 
51   384  1000
52   176  306 
53   816  112 
54   857  991 
55   732  86  
56   557  486 
57   454  216 
58   808  999 
59   131  443 
60   4    170 
61   349  338 
62   90   567 
63   194  483 
64   365  200 
65   13   329 
66   659  405 
67   991  265 
68   660  287 
69   90   521 
70   288  247 
71   480  214 
72   366  141 
73   541  535 
74   204  924 
75   344  341 
76   448  695 
77   218  533 
78   566  150 
79   612  622 
80   862  541 
81   15   5   
82   852  14  
83   412  886 
84   207  673 
85   256  304 
86   204  43  
87   374  252 
88   240  364 
89   998  286 
90   626  537 
91   436  565 
92   248  325 
93   1    99  
94   365  768 
95   727  926 
96   139  702 
97   564  864 
98   943  276 
99   35   137 
100  524  337 
101  395  315 
DEMAND_SECTION
1    0   
2    1   
3    1   
4    1   
5    1   
6    1   
7    1   
8    1   
9    1   
10   1   
11   1   
12   1   
13   1   
14   1   
15   1   
16   1   
17   1   
18   1   
19   1   
20   1   
21   1   
22   1   
23   1   
24   1   
25   1   
26   1   
27   1   
28   1   
29   1   
30   1   
31   1   
32   1   
33   1   
34   1   
35   1   
36   1   
37   1   
38   1   
39   1   
40   1   
41   1   
42   1   
43   1   
44   1   
45   1   
46   1   
47   1   
48   1   
49   1   
50   1   
51   1   
52   1   
53   1   
54   1   
55   1   
56   1   
57   1   
58   1   
59   1   
60   1   
61   1   
62   1   
63   1   
64   1   
65   1   
66   1   
67   1   
68   1   
69   1   
70   1   
71   1   
72   1   
73   1   
74   1   
75   1   
76   1   
77   1   
78   1   
79   1   
80   1   
81   1   
82   1   
83   1   
84   1   
85   1   
86   1   
87   1   
88   1   
89   1   
90   1   
91   1   
92   1   
93   1   
94   1   
95   1   
96   1   
97   1   
98   1   
99   1   
100  1   
101  1   
DEPOT_SECTION
1
-1
EOF
